681,-74
630,81
573,193
532,700
524,891
382,818
705,389
874,140
994,305
755,634
830,700
1117,723
947,599
909,480
994,305
966,314
776,593
947,213
966,314
681,886
532,700
311,526
561,406
570,64
963,18
874,140
844,86
963,18
1001,569
909,480
628,433
596,433
628,433
563,388
494,311
760,-97
482,342
494,311
